1 50 80 85 12 55 3 10 94 43 54 21 89 23 65 19 34 91 74 77 38 29 63 51 100 84 31 2 96 58 16 88 61 40 67 44 82 47 48 99 20 39 73 92 72 8 79 86 17 25 57 24 11 26 30 22 7 81 28 49 95 83 18 64 15 36 46 66 13 4 41 27 93 14 35 9 53 33 90 56 68 32 75 70 97 62 78 71 6 45 60 59 5 76 37 42 98 52 69 87
